
Log started (V11.0.0) Sun Apr 13 14:10:33 2008

Tried aggregator 1 time.
Reduced MIP has 510 rows, 5001 columns, and 10010 nonzeros.
Presolve time =    0.05 sec.
Clique table members: 500.
MIP emphasis: balance optimality and feasibility.
MIP search method: dynamic search.
Parallel mode: none, using 1 thread.
Root relaxation solution time =    0.11 sec.

        Nodes                                         Cuts/
   Node  Left     Objective  IInf  Best Integer     Best Node    ItCnt     Gap

*     0+    0                        26016.0000      499.5031      573   98.08%
*     0+    0                          511.0000      499.5031      573    2.25%
      0     0      500.0000    18      511.0000     Fract: 10      599    2.15%
      0     0      500.0000    22      511.0000     Covers: 1      611    2.15%
      0     0      500.0000    22      511.0000     Covers: 1      613    2.15%
*     0+    0                          510.0000      500.0000      613    1.96%
      0     2      500.0000    22      510.0000      500.0000      613    1.96%
*    10+    9                          509.0000      500.0000      844    1.77%
*    20+   18                          508.0000      500.0000     1170    1.57%
    100    85      504.0000    18      508.0000      500.0000     5266    1.57%
*   200+   97                          506.0000      500.0000     8890    1.19%
    200    97      507.0000    16      506.0000      500.0000     8890    1.19%
*   260+  105                          504.0000      500.0000     9860    0.79%
    300   136      501.0000    15      504.0000      500.0000    10513    0.79%
    400   216      502.4004    19      504.0000      500.0000    11414    0.79%
    500   292      501.0000    17      504.0000      500.0000    12868    0.79%
*   533+  208                          503.0000      500.0000    15432    0.60%
*   533+  138                          502.0000      500.0000    15432    0.40%
    600   137      501.0000    37      502.0000      500.0000    18078    0.40%
    700   135      501.0000    22      502.0000      500.0000    23166    0.40%
    800   181      501.0000    20      502.0000      500.0000    26609    0.40%
    900   261      500.0000    41      502.0000      500.0000    30791    0.40%
   1000   339      500.0000    52      502.0000      500.0000    35614    0.40%
Elapsed time =  19.23 sec. (tree size =  0.33 MB, solutions = 9)
   1100   416      500.1942    76      502.0000      500.0000    40184    0.40%
   1200   502      501.0000    51      502.0000      500.0000    45047    0.40%
   1300   587      501.0000    36      502.0000      500.0000    48728    0.40%
   1400   664      501.0000    18      502.0000      500.0000    53545    0.40%
   1500   740      501.0000    22      502.0000      500.0000    58227    0.40%
   1600   822      501.0000    24      502.0000      500.0000    63976    0.40%
   1700   903      501.0000    28      502.0000      500.0000    69479    0.40%
   1800   987      501.0000    26      502.0000      500.0000    73779    0.40%
   1900  1057    infeasible            502.0000      500.0000    79841    0.40%
   2000  1144      501.0000    45      502.0000      500.0000    84274    0.40%
Elapsed time =  36.45 sec. (tree size =  1.24 MB, solutions = 9)
   2100  1226      501.0000    37      502.0000      500.0000    89788    0.40%
   2200  1304      501.0000    34      502.0000      500.0000    95135    0.40%
   2300  1381      501.0000    43      502.0000      500.0000   101041    0.40%
   2400  1461      501.0000    30      502.0000      500.0000   106154    0.40%
   2500  1540      501.0000    27      502.0000      500.0000   111271    0.40%
   2600  1619      501.0000    25      502.0000      500.0000   116714    0.40%
   2700  1680      501.0000    24      502.0000      500.0000   123482    0.40%
   2800  1762      501.0000    36      502.0000      500.0000   128258    0.40%
   2900  1834      501.0000    34      502.0000      500.0000   134459    0.40%
   3000  1904      501.0000    18      502.0000      500.0000   139375    0.40%
Elapsed time =  56.58 sec. (tree size =  2.08 MB, solutions = 9)
   3100  1993      501.0000    26      502.0000      500.0000   143489    0.40%
   3200  2066      501.0000    36      502.0000      500.0000   148864    0.40%
   3300  2159      501.0000    33      502.0000      500.0000   152523    0.40%
   3400  2232      500.0182    65      502.0000      500.0000   158510    0.40%
   3500  2323      501.0000    35      502.0000      500.0000   163554    0.40%
   3600  2404      501.0000    36      502.0000      500.0000   168635    0.40%
   3700  2492      501.0000    24      502.0000      500.0000   173211    0.40%
   3800  2581      501.0000    40      502.0000      500.0000   177252    0.40%
   3900  2650      501.0000    24      502.0000      500.0000   184419    0.40%
   4000  2727      501.0000    38      502.0000      500.0000   190624    0.40%
Elapsed time =  76.81 sec. (tree size =  3.04 MB, solutions = 9)
   4100  2801      501.0000    52      502.0000      500.0000   196542    0.40%
   4200  2887      501.0000    26      502.0000      500.0000   200620    0.40%
   4300  2969      500.0000    59      502.0000      500.0000   205800    0.40%
   4400  3053      501.0000    22      502.0000      500.0000   210146    0.40%
   4500  3136      501.0000    24      502.0000      500.0000   214333    0.40%
   4600  3216      501.0000    34      502.0000      500.0000   219432    0.40%
   4700  3305      501.0000    22      502.0000      500.0000   224120    0.40%
*  4733+   70                          501.0000      500.0000   226403    0.20%
   4800    38      500.0000    72      501.0000      500.0000   247469    0.20%

Cover cuts applied:  604
Mixed integer rounding cuts applied:  14
Gomory fractional cuts applied:  6

Solution pool: 10 solutions saved.

MIP - Integer optimal solution:  Objective = 5.0100000000e+002
Solution time =  108.06 sec.  Iterations = 268204  Nodes = 4863


Incumbent solution
Variable Name           Solution Value
Cmax                        501.000000
X_1_4                         1.000000
X_2_9                         1.000000
X_3_4                         1.000000
X_4_1                         1.000000
X_5_4                         1.000000
X_6_9                         1.000000
X_7_6                         1.000000
X_8_9                         1.000000
X_9_6                         1.000000
X_10_6                        1.000000
X_11_9                        1.000000
X_12_4                        1.000000
X_13_5                        1.000000
X_14_3                        1.000000
X_15_4                        1.000000
X_16_2                        1.000000
X_17_3                        1.000000
X_18_3                        1.000000
X_19_5                        1.000000
X_20_10                       1.000000
X_21_1                        1.000000
X_22_2                        1.000000
X_23_4                        1.000000
X_24_7                        1.000000
X_25_10                       1.000000
X_26_6                        1.000000
X_27_2                        1.000000
X_28_7                        1.000000
X_29_6                        1.000000
X_30_9                        1.000000
X_31_8                        1.000000
X_32_1                        1.000000
X_33_5                        1.000000
X_34_7                        1.000000
X_35_6                        1.000000
X_36_6                        1.000000
X_37_3                        1.000000
X_38_1                        1.000000
X_39_2                        1.000000
X_40_9                        1.000000
X_41_4                        1.000000
X_42_10                       1.000000
X_43_3                        1.000000
X_44_4                        1.000000
X_45_7                        1.000000
X_46_2                        1.000000
X_47_2                        1.000000
X_48_9                        1.000000
X_49_1                        1.000000
X_50_3                        1.000000
X_51_8                        1.000000
X_52_8                        1.000000
X_53_7                        1.000000
X_54_6                        1.000000
X_55_1                        1.000000
X_56_4                        1.000000
X_57_4                        1.000000
X_58_3                        1.000000
X_59_2                        1.000000
X_60_1                        1.000000
X_61_4                        1.000000
X_62_2                        1.000000
X_63_3                        1.000000
X_64_8                        1.000000
X_65_6                        1.000000
X_66_8                        1.000000
X_67_1                        1.000000
X_68_4                        1.000000
X_69_1                        1.000000
X_70_10                       1.000000
X_71_2                        1.000000
X_72_5                        1.000000
X_73_10                       1.000000
X_74_10                       1.000000
X_75_4                        1.000000
X_76_7                        1.000000
X_77_5                        1.000000
X_78_9                        1.000000
X_79_2                        1.000000
X_80_5                        1.000000
X_81_6                        1.000000
X_82_1                        1.000000
X_83_2                        1.000000
X_84_5                        1.000000
X_85_2                        1.000000
X_86_9                        1.000000
X_87_9                        1.000000
X_88_2                        1.000000
X_89_2                        1.000000
X_90_7                        1.000000
X_91_4                        1.000000
X_92_6                        1.000000
X_93_1                        1.000000
X_94_7                        1.000000
X_95_10                       1.000000
X_96_6                        1.000000
X_97_8                        1.000000
X_98_9                        1.000000
X_99_7                        1.000000
X_100_2                       1.000000
X_101_6                       1.000000
X_102_1                       1.000000
X_103_6                       1.000000
X_104_5                       1.000000
X_105_1                       1.000000
X_106_7                       1.000000
X_107_7                       1.000000
X_108_5                       1.000000
X_109_1                       1.000000
X_110_4                       1.000000
X_111_7                       1.000000
X_112_6                       1.000000
X_113_1                       1.000000
X_114_4                       1.000000
X_115_9                       1.000000
X_116_4                       1.000000
X_117_5                       1.000000
X_118_8                       1.000000
X_119_6                       1.000000
X_120_5                       1.000000
X_121_8                       1.000000
X_122_7                       1.000000
X_123_5                       1.000000
X_124_8                       1.000000
X_125_6                       1.000000
X_126_9                       1.000000
X_127_3                       1.000000
X_128_10                      1.000000
X_129_6                       1.000000
X_130_5                       1.000000
X_131_6                       1.000000
X_132_3                       1.000000
X_133_5                       1.000000
X_134_8                       1.000000
X_135_6                       1.000000
X_136_2                       1.000000
X_137_7                       1.000000
X_138_6                       1.000000
X_139_6                       1.000000
X_140_1                       1.000000
X_141_1                       1.000000
X_142_10                      1.000000
X_143_8                       1.000000
X_144_9                       1.000000
X_145_4                       1.000000
X_146_7                       1.000000
X_147_6                       1.000000
X_148_7                       1.000000
X_149_5                       1.000000
X_150_4                       1.000000
X_151_1                       1.000000
X_152_10                      1.000000
X_153_10                      1.000000
X_154_9                       1.000000
X_155_3                       1.000000
X_156_6                       1.000000
X_157_7                       1.000000
X_158_7                       1.000000
X_159_5                       1.000000
X_160_3                       1.000000
X_161_3                       1.000000
X_162_9                       1.000000
X_163_7                       1.000000
X_164_3                       1.000000
X_165_6                       1.000000
X_166_8                       1.000000
X_167_3                       1.000000
X_168_6                       1.000000
X_169_5                       1.000000
X_170_6                       1.000000
X_171_7                       1.000000
X_172_4                       1.000000
X_173_4                       1.000000
X_174_7                       1.000000
X_175_4                       1.000000
X_176_3                       1.000000
X_177_7                       1.000000
X_178_2                       1.000000
X_179_6                       1.000000
X_180_10                      1.000000
X_181_1                       1.000000
X_182_8                       1.000000
X_183_9                       1.000000
X_184_6                       1.000000
X_185_7                       1.000000
X_186_3                       1.000000
X_187_2                       1.000000
X_188_5                       1.000000
X_189_7                       1.000000
X_190_3                       1.000000
X_191_10                      1.000000
X_192_4                       1.000000
X_193_5                       1.000000
X_194_10                      1.000000
X_195_3                       1.000000
X_196_8                       1.000000
X_197_2                       1.000000
X_198_8                       1.000000
X_199_6                       1.000000
X_200_10                      1.000000
X_201_5                       1.000000
X_202_4                       1.000000
X_203_4                       1.000000
X_204_7                       1.000000
X_205_9                       1.000000
X_206_8                       1.000000
X_207_1                       1.000000
X_208_6                       1.000000
X_209_2                       1.000000
X_210_9                       1.000000
X_211_5                       1.000000
X_212_1                       1.000000
X_213_4                       1.000000
X_214_9                       1.000000
X_215_10                      1.000000
X_216_2                       1.000000
X_217_3                       1.000000
X_218_7                       1.000000
X_219_4                       1.000000
X_220_1                       1.000000
X_221_4                       1.000000
X_222_8                       1.000000
X_223_6                       1.000000
X_224_4                       1.000000
X_225_8                       1.000000
X_226_4                       1.000000
X_227_1                       1.000000
X_228_4                       1.000000
X_229_7                       1.000000
X_230_2                       1.000000
X_231_10                      1.000000
X_232_4                       1.000000
X_233_2                       1.000000
X_234_7                       1.000000
X_235_2                       1.000000
X_236_8                       1.000000
X_237_8                       1.000000
X_238_8                       1.000000
X_239_3                       1.000000
X_240_9                       1.000000
X_241_9                       1.000000
X_242_5                       1.000000
X_243_5                       1.000000
X_244_4                       1.000000
X_245_3                       1.000000
X_246_6                       1.000000
X_247_2                       1.000000
X_248_9                       1.000000
X_249_8                       1.000000
X_250_5                       1.000000
X_251_5                       1.000000
X_252_10                      1.000000
X_253_3                       1.000000
X_254_8                       1.000000
X_255_5                       1.000000
X_256_3                       1.000000
X_257_8                       1.000000
X_258_10                      1.000000
X_259_3                       1.000000
X_260_6                       1.000000
X_261_5                       1.000000
X_262_10                      1.000000
X_263_5                       1.000000
X_264_3                       1.000000
X_265_8                       1.000000
X_266_3                       1.000000
X_267_5                       1.000000
X_268_6                       1.000000
X_269_5                       1.000000
X_270_2                       1.000000
X_271_7                       1.000000
X_272_7                       1.000000
X_273_1                       1.000000
X_274_6                       1.000000
X_275_3                       1.000000
X_276_3                       1.000000
X_277_6                       1.000000
X_278_10                      1.000000
X_279_1                       1.000000
X_280_2                       1.000000
X_281_2                       1.000000
X_282_1                       1.000000
X_283_6                       1.000000
X_284_2                       1.000000
X_285_1                       1.000000
X_286_1                       1.000000
X_287_1                       1.000000
X_288_10                      1.000000
X_289_10                      1.000000
X_290_5                       1.000000
X_291_3                       1.000000
X_292_9                       1.000000
X_293_7                       1.000000
X_294_4                       1.000000
X_295_9                       1.000000
X_296_6                       1.000000
X_297_4                       1.000000
X_298_5                       1.000000
X_299_9                       1.000000
X_300_1                       1.000000
X_301_8                       1.000000
X_302_5                       1.000000
X_303_10                      1.000000
X_304_6                       1.000000
X_305_8                       1.000000
X_306_9                       1.000000
X_307_1                       1.000000
X_308_10                      1.000000
X_309_2                       1.000000
X_310_9                       1.000000
X_311_6                       1.000000
X_312_3                       1.000000
X_313_8                       1.000000
X_314_2                       1.000000
X_315_8                       1.000000
X_316_1                       1.000000
X_317_5                       1.000000
X_318_3                       1.000000
X_319_10                      1.000000
X_320_4                       1.000000
X_321_2                       1.000000
X_322_7                       1.000000
X_323_8                       1.000000
X_324_10                      1.000000
X_325_10                      1.000000
X_326_6                       1.000000
X_327_4                       1.000000
X_328_1                       1.000000
X_329_6                       1.000000
X_330_4                       1.000000
X_331_6                       1.000000
X_332_8                       1.000000
X_333_9                       1.000000
X_334_5                       1.000000
X_335_9                       1.000000
X_336_9                       1.000000
X_337_2                       1.000000
X_338_9                       1.000000
X_339_2                       1.000000
X_340_4                       1.000000
X_341_4                       1.000000
X_342_8                       1.000000
X_343_5                       1.000000
X_344_10                      1.000000
X_345_5                       1.000000
X_346_9                       1.000000
X_347_3                       1.000000
X_348_10                      1.000000
X_349_8                       1.000000
X_350_5                       1.000000
X_351_3                       1.000000
X_352_3                       1.000000
X_353_8                       1.000000
X_354_4                       1.000000
X_355_3                       1.000000
X_356_10                      1.000000
X_357_10                      1.000000
X_358_1                       1.000000
X_359_9                       1.000000
X_360_3                       1.000000
X_361_7                       1.000000
X_362_6                       1.000000
X_363_6                       1.000000
X_364_9                       1.000000
X_365_10                      1.000000
X_366_4                       1.000000
X_367_9                       1.000000
X_368_2                       1.000000
X_369_8                       1.000000
X_370_5                       1.000000
X_371_4                       1.000000
X_372_6                       1.000000
X_373_5                       1.000000
X_374_8                       1.000000
X_375_3                       1.000000
X_376_3                       1.000000
X_377_1                       1.000000
X_378_3                       1.000000
X_379_7                       1.000000
X_380_3                       1.000000
X_381_1                       1.000000
X_382_7                       1.000000
X_383_2                       1.000000
X_384_7                       1.000000
X_385_1                       1.000000
X_386_9                       1.000000
X_387_4                       1.000000
X_388_9                       1.000000
X_389_6                       1.000000
X_390_4                       1.000000
X_391_7                       1.000000
X_392_9                       1.000000
X_393_10                      1.000000
X_394_2                       1.000000
X_395_6                       1.000000
X_396_8                       1.000000
X_397_2                       1.000000
X_398_3                       1.000000
X_399_9                       1.000000
X_400_3                       1.000000
X_401_1                       1.000000
X_402_10                      1.000000
X_403_6                       1.000000
X_404_8                       1.000000
X_405_5                       1.000000
X_406_10                      1.000000
X_407_2                       1.000000
X_408_1                       1.000000
X_409_5                       1.000000
X_410_1                       1.000000
X_411_4                       1.000000
X_412_8                       1.000000
X_413_3                       1.000000
X_414_1                       1.000000
X_415_9                       1.000000
X_416_8                       1.000000
X_417_10                      1.000000
X_418_9                       1.000000
X_419_9                       1.000000
X_420_3                       1.000000
X_421_2                       1.000000
X_422_9                       1.000000
X_423_4                       1.000000
X_424_9                       1.000000
X_425_7                       1.000000
X_426_7                       1.000000
X_427_7                       1.000000
X_428_5                       1.000000
X_429_3                       1.000000
X_430_10                      1.000000
X_431_10                      1.000000
X_432_2                       1.000000
X_433_3                       1.000000
X_434_9                       1.000000
X_435_3                       1.000000
X_436_2                       1.000000
X_437_10                      1.000000
X_438_10                      1.000000
X_439_7                       1.000000
X_440_7                       1.000000
X_441_7                       1.000000
X_442_1                       1.000000
X_443_1                       1.000000
X_444_6                       1.000000
X_445_7                       1.000000
X_446_6                       1.000000
X_447_3                       1.000000
X_448_4                       1.000000
X_449_7                       1.000000
X_450_10                      1.000000
X_451_8                       1.000000
X_452_1                       1.000000
X_453_2                       1.000000
X_454_3                       1.000000
X_455_9                       1.000000
X_456_7                       1.000000
X_457_8                       1.000000
X_458_2                       1.000000
X_459_6                       1.000000
X_460_2                       1.000000
X_461_8                       1.000000
X_462_1                       1.000000
X_463_10                      1.000000
X_464_4                       1.000000
X_465_3                       1.000000
X_466_3                       1.000000
X_467_8                       1.000000
X_468_7                       1.000000
X_469_3                       1.000000
X_470_9                       1.000000
X_471_4                       1.000000
X_472_5                       1.000000
X_473_2                       1.000000
X_474_7                       1.000000
X_475_1                       1.000000
X_476_9                       1.000000
X_477_7                       1.000000
X_478_4                       1.000000
X_479_8                       1.000000
X_480_8                       1.000000
X_481_10                      1.000000
X_482_6                       1.000000
X_483_7                       1.000000
X_484_3                       1.000000
X_485_7                       1.000000
X_486_9                       1.000000
X_487_1                       1.000000
X_488_10                      1.000000
X_489_4                       1.000000
X_490_3                       1.000000
X_491_9                       1.000000
X_492_9                       1.000000
X_493_5                       1.000000
X_494_4                       1.000000
X_495_9                       1.000000
X_496_2                       1.000000
X_497_2                       1.000000
X_498_2                       1.000000
X_499_5                       1.000000
X_500_9                       1.000000
All other variables in the range 1-5001 are 0.
